p cnf 96 223
c 1 root
c 2 CONFIG_VISUAL_STUDIO_8_0_alt
c 3 CONFIG_VISUAL_STUDIO_7_0
c 4 CONFIG_VISUAL_STUDIO_8_0
c 5 CONFIG_BIGINT_MONTGOMERY_alt
c 6 CONFIG_BIGINT_CLASSICAL
c 7 CONFIG_BIGINT_MONTGOMERY
c 8 CONFIG_BIGINT_BARRETT
c 9 CONFIG_VISUAL_STUDIO_8_0_BASE
c 10 CONFIG_PLATFORM_LINUX_alt
c 11 CONFIG_PLATFORM_LINUX
c 12 CONFIG_PLATFORM_CYGWIN
c 13 CONFIG_PLATFORM_WIN32
c 14 CONFIG_SSL_PROT_HIGH_alt
c 15 CONFIG_SSL_PROT_LOW
c 16 CONFIG_SSL_PROT_MEDIUM
c 17 CONFIG_SSL_PROT_HIGH
c 18 CONFIG_VISUAL_STUDIO_7_0_BASE
c 19 CONFIG_SSL_CERT_VERIFICATION_alt
c 20 CONFIG_SSL_SERVER_ONLY
c 21 CONFIG_SSL_CERT_VERIFICATION
c 22 CONFIG_SSL_ENABLE_CLIENT
c 23 CONFIG_SSL_FULL_MODE
c 24 CONFIG_SSL_SKELETON_MODE
c 25 CONFIG_HTTP_HTTPS_PORT
c 26 CONFIG_SSL_EXPIRY_TIME
c 27 CONFIG_HTTP_SESSION_CACHE_SIZE
c 28 CONFIG_X509_MAX_CA_CERTS
c 29 CONFIG_SSL_PRIVATE_KEY_PASSWORD
c 30 CONFIG_SSL_X509_CERT_LOCATION
c 31 CONFIG_HTTP_PORT
c 32 CONFIG_DOT_NET_FRAMEWORK_BASE
c 33 CONFIG_SSL_MAX_CERTS
c 34 CONFIG_EXTRA_CFLAGS_OPTIONS
c 35 CONFIG_HTTP_TIMEOUT
c 36 CONFIG_HTTP_WEBROOT
c 37 CONFIG_EXTRA_LDFLAGS_OPTIONS
c 38 PREFIX
c 39 CONFIG_AXTLSWRAP
c 40 CONFIG_WIN32_USE_CRYPTO_LIB
c 41 CONFIG_JAVA_BINDINGS
c 42 CONFIG_JAVA_HOME
c 43 CONFIG_SSL_TEST
c 44 CONFIG_DEBUG
c 45 CONFIG_STRIP_UNWANTED_SECTIONS
c 46 CONFIG_BIGINT_SQUARE
c 47 CONFIG_OPENSSL_COMPATIBLE
c 48 CONFIG_BIGINT_KARATSUBA
c 49 SQU_KARATSUBA_THRESH
c 50 MUL_KARATSUBA_THRESH
c 51 CONFIG_PERFORMANCE_TESTING
c 52 CONFIG_HTTP_DIRECTORIES
c 53 CONFIG_LUA_BINDINGS
c 54 CONFIG_LUA_CORE
c 55 CONFIG_HTTP_VERBOSE
c 56 CONFIG_HTTP_ENABLE_DIFFERENT_USER
c 57 CONFIG_HTTP_USER
c 58 CONFIG_BIGINT_CHECK_ON
c 59 HAVE_DOT_CONFIG
c 60 CONFIG_BIGINT_SLIDING_WINDOW
c 61 CONFIG_USE_DEV_URANDOM
c 62 CONFIG_HTTP_HAS_IPV6
c 63 CONFIG_SSL_ENABLE_V23_HANDSHAKE
c 64 CONFIG_HTTP_STATIC_BUILD
c 65 CONFIG_SSL_GENERATE_X509_CERT
c 66 CONFIG_SSL_X509_ORGANIZATION_UNIT_NAME
c 67 CONFIG_SSL_X509_ORGANIZATION_NAME
c 68 CONFIG_SSL_X509_COMMON_NAME
c 69 CONFIG_SSL_HAS_PEM
c 70 CONFIG_SSL_USE_PKCS12
c 71 CONFIG_HTTP_IS_DAEMON
c 72 CONFIG_BINDINGS
c 73 CONFIG_CSHARP_BINDINGS
c 74 CONFIG_VBNET_BINDINGS
c 75 CONFIG_HTTP_HAS_CGI
c 76 CONFIG_HTTP_CGI_EXTENSIONS
c 77 CONFIG_HTTP_ENABLE_LUA
c 78 CONFIG_HTTP_LUA_CGI_LAUNCHER
c 79 CONFIG_HTTP_LUA_PREFIX
c 80 CONFIG_HTTP_BUILD_LUA
c 81 CONFIG_BIGINT_CRT
c 82 CONFIG_PERL_BINDINGS
c 83 CONFIG_PERL_LIB
c 84 CONFIG_PERL_CORE
c 85 CONFIG_SAMPLES
c 86 CONFIG_JAVA_SAMPLES
c 87 CONFIG_VBNET_SAMPLES
c 88 CONFIG_PERL_SAMPLES
c 89 CONFIG_CSHARP_SAMPLES
c 90 CONFIG_LUA_SAMPLES
c 91 CONFIG_C_SAMPLES
c 92 CONFIG_HTTP_HAS_AUTHORIZATION
c 93 CONFIG_SSL_CTX_MUTEXING
c 94 CONFIG_AXHTTPD
c 95 CONFIG_SSL_USE_DEFAULT_KEY
c 96 CONFIG_SSL_PRIVATE_KEY_LOCATION
1
-1 2
-2 1
-2 3 4
-3 -4
-3 2
-4 2
-1 5
-5 1
-5 6 7 8
-6 -7
-6 -8
-6 5
-7 -8
-7 5
-8 5
-1 9
-9 1
-1 10
-10 1
-10 11 12 13
-11 -12
-11 -13
-11 10
-12 -13
-12 10
-13 10
-1 14
-14 1
-14 15 16 17
-15 -16
-15 -17
-15 14
-16 -17
-16 14
-17 14
-1 18
-18 1
-1 19
-19 1
-19 20 21 22 23 24
-20 -21
-20 -22
-20 -23
-20 -24
-20 19
-21 -22
-21 -23
-21 -24
-21 19
-22 -23
-22 -24
-22 19
-23 -24
-23 19
-24 19
-1 25
-25 1
-1 26
-26 1
-1 27
-27 1
-1 28
-28 1
-1 29
-29 1
-1 30
-30 1
-1 31
-31 1
-1 32
-32 1
-1 33
-33 1
-1 34
-34 1
-1 35
-35 1
-1 36
-36 1
-1 37
-37 1
-1 38
-38 1
-39 1
-40 1
-41 1
-41 42
-42 41
-43 1
-44 1
-45 44
-46 1
-47 1
-48 1
-48 49
-49 48
-48 50
-50 48
-51 1
-52 1
-53 1
-53 54
-54 53
-55 1
-56 1
-56 57
-57 56
-58 1
-59 1
-60 1
-61 1
-62 1
-63 1
-64 1
-65 1
-65 66
-66 65
-65 67
-67 65
-65 68
-68 65
-69 1
-70 1
-71 1
-72 1
-73 72
-74 72
-75 1
-75 76
-76 75
-77 75
-77 78
-78 77
-77 79
-79 77
-80 77
-81 1
-82 1
-82 83
-83 82
-82 84
-84 82
-85 1
-86 85
-87 85
-88 85
-89 85
-90 85
-91 85
-92 1
-93 1
-94 1
-95 1
-95 96
-96 95
-13 13 38
-13 -38 -13
-13 13 44 45
-13 -45 -13
-13 -45 -44
-44 13 44 45
-44 -45 -13
-44 -45 -44
-95 -29
69 -29
-65 -30
-95 -30
-24 -30
-20 20 24 28
-20 -28 -20
-20 -28 -24
-24 20 24 28
-24 -28 -20
-24 -28 -24
13 -40
23 -43
-65 -43
73 74 -73 32
73 74 -74 32
73 74 -32 73 74
85 -85 -73 89
85 -89 85
85 -89 73
73 -85 -73 89
73 -89 85
73 -89 73
85 -85 -74 87
85 -87 85
85 -87 74
74 -85 -74 87
74 -87 85
74 -87 74
85 -85 -41 86
85 -86 85
85 -86 41
41 -85 -41 86
41 -86 85
41 -86 41
85 -85 -82 88
85 -88 85
85 -88 82
82 -85 -82 88
82 -88 85
82 -88 82
85 -85 -53 90
85 -90 85
85 -90 53
53 -85 -53 90
53 -90 85
53 -90 53
-24 24 -48 -46 49
-24 -49 -24
-24 -49 48
-24 -49 46
48 24 -48 -46 49
48 -49 -24
48 -49 48
48 -49 46
46 24 -48 -46 49
46 -49 -24
46 -49 48
46 -49 46